>> Start of run:   9-APR-2024  23:25:38

reinit: Reading from standard input
************************** Dump of input data file ****************************
SystemName	geometry-6
SystemLabel	geometry-6
DM.MixingWeight	0.03
DM.NumberPulay	3
DM.Tolerance	1.d-4
DM.UseSaveDM	F
ElectronicTemperature	50 meV
MD.MaxForceTol	0.04 eV/Ang
MD.Steps	0
MD.TypeOfRun	CG
MD.UseSaveXV	F
MaxSCFIterations	500
MinSCFIterations	0
SCF.MustConverge	T
SaveDeltaRho	F
SaveElectrostaticPotential	F
SaveHS	F
SaveRho	F
SaveTotalPotential	F
SolutionMethod	diagon
Spin	non-polarized
Spin.Total	0
UseSaveData	F
WriteCoorStep	F
WriteCoorXmol	F
WriteEigenvalues	T
WriteForces	T
WriteHirshfeldPop	F
WriteKbands	F
WriteKpoints	F
WriteMDXmol	T
WriteMDhistory	F
WriteMullikenPop	0
WriteVoronoiPop	F
WriteWaveFunctions	F
SCFMustConverge	True
Spin     	non-polarized
XC.functional	GGA
XC.authors	PBE
MeshCutoff	9523.985108528535	eV
PAO.EnergyShift	0.1	eV
NumberOfSpecies	5
NumberOfAtoms	67
%block ChemicalSpecieslabel
    1 1 H.1
    2 8 O.2
    3 79 Au.gga.3
    4 79 Au.gga.4
    5 79 Au.gga.5
%endblock ChemicalSpecieslabel
%block PAO.Basis
H.1 2 0.46527
            n=1 0 2 E 99.93138 2.59932
            4.20357 1.84463
            n=2 1 1 E 24.56504 2.20231
            3.52816
O.2 3 -0.24233
            n=2 0 2 E 23.36061 3.39721
            4.50769 2.64066
            n=2 1 2 E 2.78334 5.14253
            6.14996 2.59356
            n=3 2 1 E 63.98188 0.16104
            3.54403
Au.gga.4 2
            n=6 0 2 P 1
            7.24700 5.71500
            n=5 2 2
            5.10700 2.83800
Au.gga.5 2
            n=6 0 2 P 1
            9.07500 5.78700
            n=5 2 2
            6.55700 2.87400
%endblock PAO.Basis
%block PAO.BasisSizes
    Au.gga.3	DZP
%endblock PAO.BasisSizes
LatticeConstant	1.0 Ang
%block LatticeVectors
    11.975725345373620     0.000000000000000     0.000000000000000
    0.000000000000000     10.371282377926580     0.000000000000000
    0.000000000000000     0.000000000000000     57.333623994331909
%endblock LatticeVectors
AtomicCoordinatesFormat  Ang
%block AtomicCoordinatesAndAtomicSpecies
    -0.004166136     -0.106188420     24.822840464 5
     2.960679807     -0.114827577     24.800792304 5
     5.920942478     -0.114809532     24.858957195 5
     8.899267005     -0.105983692     24.874616105 5
     1.478137460      2.458415659     24.795615717 5
     4.446568954      2.458889675     24.809845435 5
     7.418606124      2.459981762     24.883719336 5
    10.384201552      2.464245300     24.823743886 5
    -0.007529376      5.034637872     24.812226353 5
     2.962441046      5.037643337     24.764332944 5
     5.924089464      5.035106476     24.846565838 5
     8.902713855      5.028678072     24.902403177 5
     1.484855479      7.607398831     24.804924139 5
     4.439995461      7.607073487     24.784320217 5
     7.398411633      7.606013097     24.918917207 5
    10.382786143      7.604260294     24.863168657 5
     1.469962154      0.801810871     27.353794460 5
     4.438316664      0.797752865     27.373919593 5
     7.405570011      0.805329209     27.419028518 5
    10.376567255      0.816885469     27.376242931 5
    -0.019505574      3.363898171     27.329548981 5
     2.966396379      3.378113569     27.302737556 5
     5.928887005      3.376251841     27.378639384 5
     8.886649957      3.378498066     27.456150508 5
     1.474929223      5.961418861     27.312425286 5
     4.436168618      5.959550483     27.352351915 5
     7.405089697      5.941070784     27.436620989 5
    10.390608285      5.937639614     27.413340446 5
     0.016220348      8.513444036     27.344881763 5
     2.947618343      8.525878039     27.375126414 5
     5.907568328      8.518593854     27.429291640 5
     8.887138589      8.514981129     27.395463024 5
    -0.022919238      1.699317613     29.846959526 3
     2.951765144      1.696030116     29.791496659 3
     5.933449953      1.692713116     29.861255882 3
     8.905450215      1.670203116     29.932896346 3
     1.467556767      4.303392284     29.720134367 3
     4.442652409      4.277779594     29.806226818 3
     7.407786556      4.240608640     29.951814568 3
    10.372638584      4.246066875     29.894387654 3
    -0.029422743      6.836598155     29.844950013 3
     2.969146470      6.850392021     29.831860511 3
     5.929172794      6.825019138     29.907782500 3
     8.888111996      6.804085389     29.924553072 3
     1.454068194      9.412738214     29.872689156 3
     4.454249624      9.413912973     29.868220978 3
     7.419369657      9.386818920     29.917460332 3
    10.349648955      9.377463023     29.762442399 3
    -0.265062612     -0.053031955     32.283145509 3
     2.974556477      0.085804129     32.354368817 3
     5.905920068      0.096670425     32.556274016 3
     8.770957196      0.052537180     32.659698793 3
     1.554136249      2.830596597     32.201247236 3
     4.494189326      2.684132465     32.423715447 3
     7.427648368      2.619987042     32.618685864 3
    10.402220267      2.598270369     32.620506643 3
    -0.099927857      5.210593415     32.469716432 3
     3.026314716      5.306171135     32.450336862 3
     5.959249477      5.224931069     32.572054556 3
     8.863951086      5.161310729     32.654296978 3
     1.405271078      7.769392480     32.416081767 3
     4.405687869      7.843577841     32.551156207 3
     7.352191043      7.776034264     32.575893283 3
    10.281053195      7.715749698     32.607277362 3
     1.109770364      1.286052605     34.556453400 2
     1.396383583      1.920288016     35.135935284 1
     0.298111379      1.496576869     34.382253375 1
%endblock AtomicCoordinatesAndAtomicSpecies
%block DM.InitSpin
%endblock DM.InitSpin
DM.UseSaveDM	True
#KPoint grid
%block kgrid_Monkhorst_Pack
     1       0       0  0.0
     0       1       0  0.0
     0       0       1  0.0
%endblock kgrid_Monkhorst_Pack
************************** End of input data file *****************************
*** WARNING:  FDF module: fdf_read: block DM.InitSpin is empty...

reinit: -----------------------------------------------------------------------
reinit: System Name: geometry-6
reinit: -----------------------------------------------------------------------
reinit: System Label: geometry-6
reinit: -----------------------------------------------------------------------

initatom: Reading input for the pseudopotentials and atomic orbitals ----------
 Species number:            1  Label: H.1 Atomic number:           1
 Species number:            2  Label: O.2 Atomic number:           8
 Species number:            3  Label: Au.gga.3 Atomic number:          79
 Species number:            4  Label: Au.gga.4 Atomic number:          79
 Species number:            5  Label: Au.gga.5 Atomic number:          79
Ground state valence configuration:   1s01
Reading pseudopotential information in formatted form from H.1.psf

Valence configuration for pseudopotential generation:
1s( 1.00) rc: 1.25
2p( 0.00) rc: 1.25
3d( 0.00) rc: 1.25
4f( 0.00) rc: 1.25
Ground state valence configuration:   2s02  2p04
Reading pseudopotential information in formatted form from O.2.psf

Valence configuration for pseudopotential generation:
2s( 2.00) rc: 1.14
2p( 4.00) rc: 1.14
3d( 0.00) rc: 1.14
4f( 0.00) rc: 1.14
Ground state valence configuration:   6s01  5d10
Reading pseudopotential information in formatted form from Au.gga.3.psf

Pseudopotential generated from a relativistic atomic calculation
There are spin-orbit pseudopotentials available
Spin-orbit interaction is not included in this calculation

[...]

Valence configuration for pseudopotential generation:
6s( 1.00) rc: 2.32
6p( 0.50) rc: 2.29
5d( 9.50) rc: 2.24
5f( 0.00) rc: 2.00
Ground state valence configuration:   6s01  5d10
Reading pseudopotential information in formatted form from Au.gga.5.psf

Pseudopotential generated from a relativistic atomic calculation
There are spin-orbit pseudopotentials available
Spin-orbit interaction is not included in this calculation

Valence configuration for pseudopotential generation:
6s( 1.00) rc: 2.32
6p( 0.50) rc: 2.29
5d( 9.50) rc: 2.24
5f( 0.00) rc: 2.00
resizes: Read basis size for species Au.gga.3 = dzp
For H.1, standard SIESTA heuristics set lmxkb to 2
 (one more than the basis l, including polarization orbitals).
Use PS.lmax or PS.KBprojectors blocks to override.
For O.2, standard SIESTA heuristics set lmxkb to 3
 (one more than the basis l, including polarization orbitals).
Use PS.lmax or PS.KBprojectors blocks to override.
For Au.gga.3, standard SIESTA heuristics set lmxkb to 3
 (one more than the basis l, including polarization orbitals).
Use PS.lmax or PS.KBprojectors blocks to override.
For Au.gga.4, standard SIESTA heuristics set lmxkb to 3
 (one more than the basis l, including polarization orbitals).
Use PS.lmax or PS.KBprojectors blocks to override.
 Warning: Empty PAO shell. l =           1
 Will have a KB projector anyway...
For Au.gga.5, standard SIESTA heuristics set lmxkb to 3
 (one more than the basis l, including polarization orbitals).
Use PS.lmax or PS.KBprojectors blocks to override.
 Warning: Empty PAO shell. l =           1
 Will have a KB projector anyway...

<basis_specs>
H.1                  Z=   1    Mass=  1.0100        Charge= 0.46527
Lmxo=1 Lmxkb= 2    BasisType=split      Semic=F
L=0  Nsemic=0  Cnfigmx=1
          n=1  nzeta=2  polorb=0
            splnorm:   0.15000
               vcte:    99.931
               rinn:    2.5993
               qcoe:    0.0000
               qyuk:    0.0000
               qwid:   0.10000E-01
                rcs:    4.2036      1.8446
            lambdas:    1.0000      1.0000
L=1  Nsemic=0  Cnfigmx=2
          n=1  nzeta=1  polorb=0
            splnorm:   0.15000
               vcte:    24.565
               rinn:    2.2023
               qcoe:    0.0000
               qyuk:    0.0000
               qwid:   0.10000E-01
                rcs:    3.5282
            lambdas:    1.0000
L=0  Nkbl=1  erefs: 0.17977+309
L=1  Nkbl=1  erefs: 0.17977+309
L=2  Nkbl=1  erefs: 0.17977+309
</basis_specs>

atom: Called for H.1                   (Z =   1)

read_vps: Pseudopotential generation method:
read_vps: ATM3      Troullier-Martins
Total valence charge:    1.00000

xc_check: Exchange-correlation functional:
xc_check: GGA Perdew, Burke & Ernzerhof 1996
V l=0 = -2*Zval/r beyond r=  1.2343
V l=1 = -2*Zval/r beyond r=  1.2189
V l=2 = -2*Zval/r beyond r=  1.2189
All V_l potentials equal beyond r=  1.2343
This should be close to max(r_c) in ps generation
All pots = -2*Zval/r beyond r=  1.2343

VLOCAL1: 99.0% of the norm of Vloc inside     28.493 Ry
VLOCAL1: 99.9% of the norm of Vloc inside     64.935 Ry
atom: Maximum radius for 4*pi*r*r*local-pseudopot. charge    1.45251
atom: Maximum radius for r*vlocal+2*Zval:    1.21892
GHOST: No ghost state for L =  0
GHOST: No ghost state for L =  1
GHOST: No ghost state for L =  2

KBgen: Kleinman-Bylander projectors:
   l= 0   rc=  1.364359   el= -0.477200   Ekb= -2.021939   kbcos= -0.344793
   l= 1   rc=  1.434438   el=  0.001076   Ekb= -0.443447   kbcos= -0.022843
   l= 2   rc=  1.470814   el=  0.002010   Ekb= -0.140543   kbcos= -0.002863

[...]
           9       1:   47    1:   45    1:  185
          10      49:   96   46:   90  271:  287
          11       1:   48   46:   90  271:  287
          12       1:   48   46:   90  186:  202
          13      49:   96    1:   45  237:  253
          14       1:   45    1:   38  288:  480
          15       1:   48    1:   45  203:  219
          16      49:   96   46:   90  220:  236
          17      48:   96   46:   90    1:  185
          18      49:   96   46:   90  203:  219
          19       1:   48   46:   90  237:  253
          20      49:   96   46:   90  237:  253
          21       1:   48   46:   90  254:  270
          22      46:   96   44:   90  288:  480
          23      49:   96    1:   45  203:  219
          24       1:   48   46:   90  220:  236
          25       1:   47   46:   90    1:  185
          26      49:   96    1:   45  271:  287
          27       1:   48    1:   45  220:  236
          28       1:   48   46:   90  203:  219
          29      49:   96   46:   90  254:  270
          30       1:   45   39:   90  288:  480
          31      49:   96    1:   45  186:  202
          32      49:   96    1:   45  220:  236
Setting up quadratic distribution...
ExtMesh (bp) on 0 =   205 x   213 x   369 =    16112385
PhiOnMesh: Number of (b)points on node 0 =               452025
PhiOnMesh: nlist on node 0 =              3580673

stepf: Fermi-Dirac step function

siesta: Program's energy decomposition (eV):
siesta: Ebs     =     -3480.294202
siesta: Eions   =     74448.861464
siesta: Ena     =      3162.746759
siesta: Ekin    =     44340.467594
siesta: Enl     =    -18463.270715
siesta: DEna    =         0.000048
siesta: DUscf   =         0.000000
siesta: DUext   =         0.000000
siesta: Exc     =    -46061.328728
siesta: eta*DQ  =         0.000000
siesta: Emadel  =         0.000000
siesta: Emeta   =         0.000000
siesta: Emolmec =         0.000000
siesta: Ekinion =         0.000000
siesta: Eharris =    -91686.372526
siesta: Etot    =    -91470.246507
siesta: FreeEng =    -91470.725652

SCF Convergence by dMax criterion
max |DM_out - DM_in|:     0.00009862
SCF cycle converged after   70 iterations

Using DM_out to compute the final energy and forces

siesta: E_KS(eV) =           -91577.3483

siesta: E_KS - E_eggbox =    -91577.3483

siesta: Atomic forces (eV/Ang):
     1   -0.122441   -0.137427    0.004729
     2   -0.008325   -0.176051   -0.066533
     3   -0.021228   -0.175303   -0.077734
     4    0.123158   -0.177902   -0.069352
     5   -0.134495    0.011353   -0.121864
     6    0.027656    0.007919   -0.154817
     7    0.012204    0.022617   -0.146757
     8    0.133229    0.017832   -0.058461
     9   -0.147690   -0.010614   -0.092183
    10   -0.006840   -0.013255   -0.163578
    11   -0.016734   -0.018702   -0.145942
    12    0.130036   -0.016306   -0.129012
    13   -0.122421    0.157638   -0.121931
    14    0.021710    0.158614   -0.095464
    15    0.009272    0.160068   -0.138052
    16    0.116951    0.118855   -0.057375
    17   -0.152960   -0.176506    0.210930
    18    0.020356   -0.177008    0.214205
    19    0.021213   -0.173482    0.233619
    20    0.165165   -0.120643    0.252098
    21   -0.189891    0.005034    0.172654
    22   -0.011946    0.026083    0.157209
    23   -0.017319    0.017773    0.181522
    24    0.154533    0.012355    0.166879
    25   -0.150318   -0.021480    0.164738
    26    0.017295   -0.006546    0.179437
    27    0.015697   -0.016313    0.188226
    28    0.177319    0.001597    0.210710
    29   -0.169648    0.140579    0.151316
    30    0.006734    0.196549    0.112414
    31   -0.028152    0.187560    0.113502
    32    0.132796    0.167519    0.129886
    33   -0.160243   -0.098788    0.095907
    34   -0.001621   -0.124680    0.180410
    35   -0.018805   -0.144142    0.198956
    36    0.123112   -0.141966    0.157826
    37   -0.147678    0.036776    0.252005
    38    0.039266    0.028951    0.226559
    39    0.014285    0.024273    0.186775
    40    0.158920    0.034684    0.172018
    41   -0.188114   -0.000947    0.177132
    42   -0.012717    0.008160    0.221332
    43   -0.019364    0.013334    0.206789
    44    0.138843    0.015376    0.194031
    45   -0.147357    0.149341    0.146772
    46    0.028374    0.156864    0.158418
    47   -0.005367    0.170204    0.183429
    48    0.156061    0.138929    0.203967
    49   -0.200795   -0.183321   -0.375382
    50   -0.031550   -0.121236   -0.307842
    51   -0.008020   -0.154619   -0.286103
    52    0.152004   -0.130961   -0.370735
    53   -0.078571   -0.158067   -0.169538
    54   -0.016257   -0.032684   -0.195344
    55    0.023944    0.000904   -0.252057
    56    0.090520   -0.013644   -0.456949
    57   -0.113855    0.020894   -0.299148
    58   -0.030519   -0.045070   -0.237994
    59   -0.015173   -0.018685   -0.249554
    60    0.158802    0.001187   -0.321828
    61   -0.095190    0.091439   -0.282075
    62    0.004505    0.107262   -0.310663
    63    0.020615    0.144631   -0.244128
    64    0.122502    0.145865   -0.401004
    65    6.774032   -4.488641   -0.065378
    66    1.519095    2.670635    2.636391
    67   -8.260355    1.901014   -1.977976
   Tot   -0.041753   -0.004322    0.000038
   Max    8.260355
   Res    0.899015    sqrt( Sum f_i^2 / 3N )
   Max    8.260355    constrained

Stress-tensor-Voigt (kbar):       12.00       15.92        1.52        0.07       -0.23       -0.64
(Free)E + p*V (eV/cell)   -91621.0733
Target enthalpy (eV/cell)   -91577.4583

siesta: Eigenvalues (eV):
  ik is    eps
   1  1 -26.90 -14.65 -12.64 -11.55 -11.44 -11.34 -11.11 -11.05 -10.73 -10.62
        -10.43 -10.40 -10.34 -10.34 -10.32 -10.31 -10.30 -10.26 -10.24 -10.22
        -10.21 -10.19 -10.17 -10.17 -10.12  -9.85  -9.84  -9.83  -9.78  -9.75
         -9.72  -9.71  -9.71  -9.70  -9.69  -9.68  -9.67  -9.66  -9.65  -9.62
         -9.60  -9.59  -9.58  -9.57  -9.56  -9.56  -9.53  -9.50  -9.49  -9.48
         -9.46  -9.45  -9.45  -9.44  -9.43  -9.42  -9.40  -9.37  -9.30  -9.27
         -9.25  -9.25  -9.22  -9.21  -9.20  -9.14  -9.11  -9.10  -9.09  -9.07
         -9.04  -9.03  -8.99  -8.97  -8.96  -8.92  -8.92  -8.91  -8.90  -8.89
         -8.88  -8.86  -8.84  -8.82  -8.79  -8.78  -8.76  -8.76  -8.74  -8.73
         -8.72  -8.71  -8.69  -8.69  -8.67  -8.66  -8.64  -8.63  -8.62  -8.60
         -8.58  -8.57  -8.57  -8.56  -8.55  -8.55  -8.53  -8.53  -8.52  -8.51
         -8.50  -8.49  -8.48  -8.48  -8.46  -8.44  -8.42  -8.40  -8.39  -8.39
         -8.38  -8.38  -8.35  -8.34  -8.33  -8.32  -8.31  -8.31  -8.30  -8.29
         -8.28  -8.27  -8.26  -8.25  -8.23  -8.23  -8.22  -8.16  -8.16  -8.14
         -8.12  -8.11  -8.10  -8.10  -8.10  -8.08  -8.06  -8.05  -8.04  -8.04
         -8.03  -8.03  -7.99  -7.99  -7.99  -7.98  -7.97  -7.96  -7.95  -7.93
         -7.92  -7.92  -7.90  -7.88  -7.87  -7.87  -7.86  -7.85  -7.84  -7.83
         -7.82  -7.81  -7.80  -7.80  -7.79  -7.78  -7.77  -7.75  -7.75  -7.75
         -7.73  -7.73  -7.71  -7.69  -7.67  -7.65  -7.63  -7.62  -7.61  -7.61
         -7.59  -7.57  -7.55  -7.54  -7.53  -7.48  -7.48  -7.47  -7.47  -7.45
         -7.44  -7.44  -7.43  -7.42  -7.42  -7.41  -7.40  -7.38  -7.36  -7.35
         -7.34  -7.33  -7.32  -7.31  -7.29  -7.28  -7.28  -7.27  -7.26  -7.25
         -7.24  -7.23  -7.22  -7.22  -7.21  -7.19  -7.19  -7.18  -7.17  -7.15
         -7.15  -7.14  -7.12  -7.11  -7.10  -7.09  -7.08  -7.06  -7.05  -7.04
         -7.03  -7.03  -7.02  -7.02  -7.01  -6.99  -6.96  -6.95  -6.93  -6.92
         -6.90  -6.88  -6.87  -6.86  -6.85  -6.84  -6.84  -6.83  -6.82  -6.80
         -6.79  -6.78  -6.76  -6.74  -6.73  -6.71  -6.70  -6.69  -6.67  -6.67
         -6.67  -6.64  -6.62  -6.60  -6.56  -6.56  -6.52  -6.51  -6.50  -6.49
         -6.49  -6.48  -6.46  -6.45  -6.44  -6.44  -6.43  -6.42  -6.41  -6.40
         -6.39  -6.38  -6.37  -6.37  -6.36  -6.35  -6.34  -6.34  -6.33  -6.33
         -6.32  -6.31  -6.31  -6.28  -6.27  -6.27  -6.26  -6.26  -6.25  -6.25
         -6.24  -6.23  -6.23  -6.22  -6.21  -6.17  -6.17  -6.16  -6.16  -6.16
         -6.15  -6.14  -6.12  -6.10  -6.06  -6.05  -6.04  -6.03  -6.02  -6.00
         -5.99  -5.99  -5.97  -5.85  -5.83  -5.82  -5.82  -5.79  -5.79  -5.78
         -5.76  -5.73  -5.73  -5.71  -5.65  -5.59  -5.59  -5.15  -4.81  -4.79
         -4.72  -4.72  -4.40  -4.39  -4.09  -4.07  -3.81  -3.79  -3.75  -3.74
         -3.68  -3.67  -3.63  -3.37  -3.17  -3.15  -3.14  -2.94  -2.92  -2.90
         -2.88  -2.75  -2.70  -2.68  -2.65  -2.59  -2.44  -2.34  -2.31  -2.06
         -2.05  -2.03  -2.00  -1.27  -1.26  -1.17  -1.15  -1.13  -1.11  -1.05
         -0.92  -0.91  -0.86  -0.83  -0.72  -0.69  -0.66  -0.37  -0.33  -0.04
          0.01   0.41   0.47   0.53   0.85   0.94   0.96   1.02   1.07   1.13
          1.16   1.32   1.35   1.39   1.54   1.58   1.67   1.74   1.90   1.94
          1.97   2.02   2.07   2.16   2.35   2.38   2.82   2.86   2.98   2.99
          3.03   3.10   3.13   3.20   3.53   3.60   3.67   3.74   3.88   3.91
          3.94   3.99   3.99   4.01   4.69   4.79   4.82   4.84   4.88   4.94
          4.96   5.01   5.04   5.06   5.10   5.20   5.34   5.43   5.65   5.80
          5.82   5.88   5.97   6.01   6.04   6.21   6.23   6.27   6.29   6.31
          6.37   6.42   6.52   6.54   6.58   6.60   6.66   6.72   6.85   6.89
          7.02   7.13   7.28   7.58   7.63   7.68   7.72   7.74   7.77   7.82
          7.85   7.89   7.94   7.99   8.03   8.05   8.21   8.54   8.69   8.70
          8.77   8.80   8.85   8.86   8.93   9.02   9.04   9.06   9.17   9.28
          9.40   9.41   9.59   9.71   9.79   9.85   9.90   9.94  10.03  10.54
         10.60  10.64  10.66  10.71  10.71  10.72  10.75  10.78  10.81  10.82
         10.87  10.88  10.91  10.95  11.12  11.28  11.35  11.44  11.61  11.72
         11.74  11.83  11.85  11.88  11.93  11.97  12.01  12.07  12.16  12.27
         12.53  12.57  12.60  12.64  12.68  12.70  12.77  12.81  13.01  13.03
         13.11  13.14  13.19  13.36  13.42  13.47  13.55  13.71  13.80  13.84
         13.90  14.69  14.70  14.70  14.82  14.85  14.90  14.96  15.04  15.08
         15.11  15.20  15.23  15.28  15.33  15.40  15.41  15.56  15.62  15.72
         15.93  15.98  16.20  16.49  16.53  16.56  16.60  16.62  16.64  16.78
[...]
         34.71  34.82  35.00  35.04  35.18  35.20  35.36  35.42  35.44  35.50
         35.59  35.66  35.72  35.78  35.86  35.99  36.06  36.07  36.15  36.23
         36.43  36.58  36.62  36.74  36.91  36.99  37.12  37.16  37.17  37.34
         37.39  37.44  37.53  37.56  37.68  37.76  37.81  37.89  38.09  38.20
         38.26  38.31  38.44  38.49  38.61  38.63  38.71  38.71  39.01  39.22
         39.31  39.43  39.62  39.89  40.06  40.17  40.31  40.37  40.43  40.46
         40.52  40.52  40.62  40.71  40.77  40.82  40.93  41.01  41.04  41.16
         41.27  41.37  41.55  41.64  41.71  41.83  41.95  42.06  42.16  42.21
         42.37  42.47  42.51  42.74  42.82  42.90  42.96  42.99  43.07  43.16
         43.24  43.33  43.40  43.74  43.81  43.85  43.93  44.01  44.04  44.21
         44.33  44.41  44.57  44.62  44.90  45.12  45.22  45.48  45.77  45.92
         45.96  46.12  46.19  46.25  46.49  46.63  46.68  46.73  46.80  47.08
         47.67  47.78  47.83  47.99  48.01  48.39  48.40  48.56  48.71  48.79
         49.10  49.73  49.78  50.28  50.34  50.41  50.76  57.58  60.49  61.48
         64.69  67.50  77.01
siesta: Fermi energy =      -3.951271 eV

siesta: Program's energy decomposition (eV):
siesta: Ebs     =     -5591.305003
siesta: Eions   =     74448.861464
siesta: Ena     =      3162.746759
siesta: Ekin    =     41807.612313
siesta: Enl     =    -17207.746120
siesta: DEna    =       604.248074
siesta: DUscf   =        55.200747
siesta: DUext   =         0.000000
siesta: Exc     =    -45550.548590
siesta: eta*DQ  =         0.000000
siesta: Emadel  =         0.000000
siesta: Emeta   =         0.000000
siesta: Emolmec =         0.000000
siesta: Ekinion =         0.000000
siesta: Eharris =    -91577.348283
siesta: Etot    =    -91577.348282
siesta: FreeEng =    -91577.458280

siesta: Final energy (eV):
siesta:  Band Struct. =   -5591.305003
siesta:       Kinetic =   41807.612313
siesta:       Hartree = 1197946.399579
siesta:    Ext. field =       0.000000
siesta:   Exch.-corr. =  -45550.548590
siesta:  Ion-electron =-2428284.391173
siesta:       Ion-ion = 1142503.579590
siesta:       Ekinion =       0.000000
siesta:         Total =  -91577.348282

siesta: Atomic forces (eV/Ang):
siesta:      1   -0.122441   -0.137427    0.004729
siesta:      2   -0.008325   -0.176051   -0.066533
siesta:      3   -0.021228   -0.175303   -0.077734
siesta:      4    0.123158   -0.177902   -0.069352
siesta:      5   -0.134495    0.011353   -0.121864
siesta:      6    0.027656    0.007919   -0.154817
siesta:      7    0.012204    0.022617   -0.146757
siesta:      8    0.133229    0.017832   -0.058461
siesta:      9   -0.147690   -0.010614   -0.092183
siesta:     10   -0.006840   -0.013255   -0.163578
siesta:     11   -0.016734   -0.018702   -0.145942
siesta:     12    0.130036   -0.016306   -0.129012
siesta:     13   -0.122421    0.157638   -0.121931
siesta:     14    0.021710    0.158614   -0.095464
siesta:     15    0.009272    0.160068   -0.138052
siesta:     16    0.116951    0.118855   -0.057375
siesta:     17   -0.152960   -0.176506    0.210930
siesta:     18    0.020356   -0.177008    0.214205
siesta:     19    0.021213   -0.173482    0.233619
siesta:     20    0.165165   -0.120643    0.252098
siesta:     21   -0.189891    0.005034    0.172654
siesta:     22   -0.011946    0.026083    0.157209
siesta:     23   -0.017319    0.017773    0.181522
siesta:     24    0.154533    0.012355    0.166879
siesta:     25   -0.150318   -0.021480    0.164738
siesta:     26    0.017295   -0.006546    0.179437
siesta:     27    0.015697   -0.016313    0.188226
siesta:     28    0.177319    0.001597    0.210710
siesta:     29   -0.169648    0.140579    0.151316
siesta:     30    0.006734    0.196549    0.112414
siesta:     31   -0.028152    0.187560    0.113502
siesta:     32    0.132796    0.167519    0.129886
siesta:     33   -0.160243   -0.098788    0.095907
siesta:     34   -0.001621   -0.124680    0.180410
siesta:     35   -0.018805   -0.144142    0.198956
siesta:     36    0.123112   -0.141966    0.157826
siesta:     37   -0.147678    0.036776    0.252005
siesta:     38    0.039266    0.028951    0.226559
siesta:     39    0.014285    0.024273    0.186775
siesta:     40    0.158920    0.034684    0.172018
siesta:     41   -0.188114   -0.000947    0.177132
siesta:     42   -0.012717    0.008160    0.221332
siesta:     43   -0.019364    0.013334    0.206789
siesta:     44    0.138843    0.015376    0.194031
siesta:     45   -0.147357    0.149341    0.146772
siesta:     46    0.028374    0.156864    0.158418
siesta:     47   -0.005367    0.170204    0.183429
siesta:     48    0.156061    0.138929    0.203967
siesta:     49   -0.200795   -0.183321   -0.375382
siesta:     50   -0.031550   -0.121236   -0.307842
siesta:     51   -0.008020   -0.154619   -0.286103
siesta:     52    0.152004   -0.130961   -0.370735
siesta:     53   -0.078571   -0.158067   -0.169538
siesta:     54   -0.016257   -0.032684   -0.195344
siesta:     55    0.023944    0.000904   -0.252057
siesta:     56    0.090520   -0.013644   -0.456949
siesta:     57   -0.113855    0.020894   -0.299148
siesta:     58   -0.030519   -0.045070   -0.237994
siesta:     59   -0.015173   -0.018685   -0.249554
siesta:     60    0.158802    0.001187   -0.321828
siesta:     61   -0.095190    0.091439   -0.282075
siesta:     62    0.004505    0.107262   -0.310663
siesta:     63    0.020615    0.144631   -0.244128
siesta:     64    0.122502    0.145865   -0.401004
siesta:     65    6.774032   -4.488641   -0.065378
siesta:     66    1.519095    2.670635    2.636391
siesta:     67   -8.260355    1.901014   -1.977976
siesta: ----------------------------------------
siesta:    Tot   -0.041753   -0.004322    0.000038

siesta: Stress tensor (static) (eV/Ang**3):
siesta:     0.007487    0.000045   -0.000398
siesta:     0.000045    0.009938   -0.000141
siesta:    -0.000398   -0.000141    0.000949

siesta: Cell volume =       7121.044177 Ang**3

siesta: Pressure (static):
siesta:                Solid            Molecule  Units
siesta:          -0.00006671         -0.00008792  Ry/Bohr**3
siesta:          -0.00612481         -0.00807278  eV/Ang**3
siesta:          -9.81312569        -12.93415272  kBar
(Free)E+ p_basis*V_orbitals  =      -91504.781085
(Free)Eharris+ p_basis*V_orbitals  =      -91504.781085

siesta: Electric dipole (a.u.)  =    0.000000    0.000000    1.719142
siesta: Electric dipole (Debye) =    0.000000    0.000000    4.369626
>> End of run:   9-APR-2024  23:35:25
Job completed